n_res = 4;
rc = [ 42, 41, 49, 34 ];
n_tasks = 120;
d = [ 8, 1, 3, 5, 9, 10, 6, 2, 3, 6, 5, 4, 9, 6, 8, 9, 5, 4, 2, 4, 1, 1, 4, 4, 6, 3, 2, 6, 3, 10, 2, 3, 9, 9, 2, 8, 4, 10, 1, 10, 2, 6, 10, 10, 2, 2, 7, 2, 1, 4, 1, 6, 5, 10, 10, 5, 2, 2, 5, 9, 7, 10, 5, 6, 10, 5, 8, 1, 2, 7, 1, 8, 6, 1, 5, 4, 4, 3, 5, 5, 7, 9, 8, 6, 9, 7, 5, 10, 6, 4, 6, 7, 6, 6, 9, 9, 4, 5, 1, 8, 8, 8, 8, 5, 3, 5, 3, 3, 5, 10, 3, 3, 9, 10, 5, 5, 7, 3, 2, 4 ];
rr = [| 3, 0, 0, 0, 0, 3, 7, 7, 0, 4, 10, 10, 2, 1, 7, 0, 8, 5, 2, 0, 10, 9, 0, 0, 6, 1, 5, 0, 0, 0, 1, 5, 8, 1, 5, 9, 0, 0, 1, 4, 0, 8, 1, 8, 0, 0, 1, 0, 1, 2, 4, 2, 0, 7, 0, 10, 0, 9, 9, 1, 10, 10, 2, 0, 10, 3, 10, 4, 0, 7, 1, 9, 10, 1, 10, 4, 0, 10, 1, 1, 4, 0, 2, 5, 9, 1, 9, 9, 0, 10, 8, 1, 9, 10, 0, 2, 3, 7, 0, 5, 1, 0, 0, 6, 8, 5, 10, 10, 10, 1, 8, 6, 1, 0, 0, 0, 1, 8, 0, 10
      | 8, 8, 3, 7, 6, 4, 2, 5, 0, 0, 0, 3, 10, 3, 5, 0, 2, 10, 6, 8, 8, 7, 3, 7, 10, 0, 0, 10, 2, 5, 2, 0, 6, 6, 4, 2, 1, 7, 0, 0, 3, 0, 2, 1, 2, 0, 6, 10, 7, 5, 6, 5, 0, 5, 0, 0, 0, 6, 2, 0, 0, 0, 8, 8, 0, 7, 0, 0, 0, 1, 2, 3, 9, 7, 0, 4, 9, 7, 10, 6, 9, 3, 8, 0, 0, 0, 5, 9, 1, 7, 0, 4, 0, 3, 4, 8, 0, 0, 0, 1, 0, 3, 7, 1, 3, 9, 9, 8, 10, 0, 9, 6, 0, 2, 1, 3, 4, 3, 8, 9
      | 9, 9, 8, 10, 6, 6, 0, 7, 2, 1, 7, 0, 1, 8, 3, 0, 8, 10, 6, 9, 0, 0, 9, 0, 5, 7, 0, 10, 0, 10, 5, 8, 10, 8, 1, 3, 8, 6, 5, 8, 4, 5, 10, 6, 4, 3, 0, 6, 4, 8, 10, 3, 1, 4, 3, 7, 8, 2, 2, 3, 8, 7, 1, 9, 0, 8, 3, 0, 5, 3, 2, 2, 10, 8, 9, 7, 8, 2, 5, 1, 6, 7, 3, 9, 9, 2, 8, 3, 0, 0, 5, 3, 5, 0, 8, 6, 8, 3, 2, 3, 0, 1, 10, 6, 7, 3, 0, 0, 3, 0, 3, 7, 8, 8, 0, 0, 10, 0, 7, 4
      | 3, 1, 9, 3, 0, 0, 7, 10, 5, 2, 2, 2, 4, 9, 10, 3, 0, 0, 0, 0, 1, 10, 4, 6, 8, 0, 2, 7, 0, 0, 3, 7, 4, 3, 2, 7, 0, 0, 7, 7, 3, 10, 2, 0, 6, 10, 7, 6, 6, 3, 10, 4, 5, 9, 7, 9, 0, 3, 1, 0, 7, 0, 7, 0, 3, 0, 0, 0, 7, 0, 4, 5, 4, 0, 8, 4, 0, 0, 1, 0, 2, 2, 0, 0, 5, 0, 3, 5, 6, 6, 8, 0, 9, 0, 1, 7, 7, 7, 10, 3, 9, 10, 10, 10, 7, 1, 0, 8, 10, 7, 4, 4, 4, 10, 7, 5, 3, 9, 8, 0 |];
suc = [ { 6, 17, 60 },
       { 5, 7, 22 },
       { 4, 38 },
       { 11, 14, 106 },
       { 15, 34, 51 },
       { 69, 78 },
       { 8, 9, 10 },
       { 16, 46 },
       { 18 },
       { 26, 48, 79 },
       { 12, 28, 29 },
       { 13, 20, 59 },
       { 46 },
       { 61 },
       { 64, 76, 82 },
       { 19, 24 },
       { 73, 75 },
       { 21, 23 },
       { 30, 45, 47 },
       { 37, 74 },
       { 93 },
       { 41, 84 },
       { 31, 56, 70 },
       { 25, 49 },
       { 27, 44, 87 },
       { 33, 43, 68 },
       { 32 },
       { 58, 93 },
       { 42 },
       { 40 },
       { 96 },
       { 62 },
       { 35, 39 },
       { 50 },
       { 36, 53, 55 },
       { 52 },
       { 99, 104 },
       { 39 },
       { 90 },
       { 72 },
       { 81 },
       { 113 },
       { 112 },
       { 106 },
       { 79 },
       { 89 },
       { 95, 103 },
       { 65 },
       { 58 },
       { 85, 88 },
       { 60, 88 },
       { 54 },
       { 97 },
       { 57 },
       { 74 },
       { 80 },
       { 108 },
       { 62, 69, 77 },
       { 98, 111 },
       { 68 },
       { 66, 67, 105 },
       { 63, 83 },
       { 82 },
       { 100 },
       { 71 },
       { 72 },
       { 86, 92 },
       { 119 },
       { 98 },
       { 71, 76, 97 },
       { 77, 86 },
       { 92 },
       { 96 },
       { 102 },
       { 97 },
       { 100 },
       { 118 },
       { 117 },
       { 91 },
       { 94, 107, 113 },
       { 116 },
       { 96 },
       { 99, 109 },
       { 111 },
       { 90 },
       { 89, 90 },
       { 112 },
       { 98 },
       { 93 },
       { 91 },
       { 112 },
       { 116 },
       { 103, 108 },
       { 110, 116 },
       { 114 },
       { 103, 105 },
       { 106 },
       { 105 },
       { 101 },
       { 117 },
       { 114 },
       { 120 },
       { 114 },
       { 113 },
       { 107 },
       { 111 },
       { 108 },
       { 118 },
       { 118 },
       { 117 },
       { 115 },
       { 120 },
       { 115 },
       { 115 },
       { 119 },
       { 120 },
       { 119 },
       {  },
       {  },
       {  } ];
